run 0
thermo_style    custom step time temp c_sub_temp etotal pe ke dt v_zmax_cu v_zmin_cu v_zmax_o v_zmin_o
# thermo_style    custom step time temp etotal pe ke dt v_zmax_cu v_zmin_cu v_zmax_o v_zmin_o

# inner loop
# within the outer loop, N_i_sft ions will be deposited
# each ion deposition event has Dt_i steps before next ion is deposited
variable        n_stp equal 1.0*${Dt_i}
variable 	DT_LOOP_COUNT loop ${N_sft}
label 	        DT_LOOP_START

fix             fix_dt substrate_g dt/reset 10 0.00001 0.001 0.03
run             ${n_stp} # default: 8000 steps
unfix           fix_dt

python cleanup_o2 invoke
run 0 # to bring variables to current

if "${DT_LOOP_COUNT} > ${N_i_sft}" then "jump SELF DT_LOOP_BREAK"
next            DT_LOOP_COUNT
jump            SELF DT_LOOP_START
label           DT_LOOP_BREAK
